p edge 200 3008
e 5 1
e 19 1
e 20 1
e 24 1
e 25 1
e 33 1
e 37 1
e 46 1
e 56 1
e 57 1
e 73 1
e 87 1
e 90 1
e 105 1
e 111 1
e 117 1
e 119 1
e 121 1
e 126 1
e 129 1
e 138 1
e 158 1
e 165 1
e 176 1
e 183 1
e 186 1
e 187 1
e 8 2
e 9 2
e 21 2
e 26 2
e 33 2
e 39 2
e 41 2
e 44 2
e 58 2
e 81 2
e 93 2
e 94 2
e 101 2
e 108 2
e 116 2
e 131 2
e 132 2
e 151 2
e 154 2
e 156 2
e 158 2
e 160 2
e 162 2
e 166 2
e 172 2
e 175 2
e 178 2
e 183 2
e 195 2
e 4 3
e 9 3
e 10 3
e 11 3
e 13 3
e 15 3
e 20 3
e 30 3
e 32 3
e 35 3
e 55 3
e 67 3
e 86 3
e 93 3
e 94 3
e 98 3
e 112 3
e 125 3
e 130 3
e 133 3
e 148 3
e 149 3
e 151 3
e 153 3
e 156 3
e 161 3
e 195 3
e 15 4
e 16 4
e 30 4
e 44 4
e 54 4
e 57 4
e 61 4
e 64 4
e 71 4
e 76 4
e 82 4
e 98 4
e 101 4
e 103 4
e 110 4
e 122 4
e 128 4
e 131 4
e 133 4
e 143 4
e 146 4
e 153 4
e 158 4
e 162 4
e 165 4
e 168 4
e 173 4
e 183 4
e 184 4
e 191 4
e 192 4
e 198 4
e 199 4
e 14 5
e 31 5
e 78 5
e 85 5
e 90 5
e 113 5
e 120 5
e 137 5
e 142 5
e 155 5
e 165 5
e 168 5
e 175 5
e 179 5
e 185 5
e 197 5
e 199 5
e 14 6
e 18 6
e 29 6
e 32 6
e 40 6
e 51 6
e 52 6
e 57 6
e 66 6
e 73 6
e 98 6
e 109 6
e 111 6
e 114 6
e 116 6
e 118 6
e 123 6
e 127 6
e 137 6
e 138 6
e 139 6
e 140 6
e 150 6
e 164 6
e 166 6
e 173 6
e 174 6
e 185 6
e 191 6
e 9 7
e 27 7
e 36 7
e 43 7
e 44 7
e 48 7
e 57 7
e 71 7
e 92 7
e 101 7
e 105 7
e 113 7
e 116 7
e 118 7
e 121 7
e 122 7
e 129 7
e 137 7
e 143 7
e 146 7
e 162 7
e 180 7
e 185 7
e 191 7
e 197 7
e 12 8
e 14 8
e 31 8
e 38 8
e 47 8
e 55 8
e 59 8
e 72 8
e 73 8
e 86 8
e 87 8
e 107 8
e 122 8
e 137 8
e 151 8
e 152 8
e 165 8
e 167 8
e 172 8
e 180 8
e 194 8
e 195 8
e 23 9
e 33 9
e 37 9
e 52 9
e 63 9
e 75 9
e 76 9
e 84 9
e 88 9
e 93 9
e 102 9
e 104 9
e 105 9
e 112 9
e 121 9
e 127 9
e 132 9
e 137 9
e 138 9
e 140 9
e 142 9
e 154 9
e 155 9
e 156 9
e 157 9
e 169 9
e 170 9
e 177 9
e 178 9
e 187 9
e 191 9
e 193 9
e 16 10
e 19 10
e 22 10
e 37 10
e 41 10
e 47 10
e 51 10
e 55 10
e 56 10
e 64 10
e 71 10
e 74 10
e 77 10
e 82 10
e 85 10
e 89 10
e 93 10
e 109 10
e 114 10
e 126 10
e 140 10
e 162 10
e 171 10
e 198 10
e 20 11
e 34 11
e 43 11
e 46 11
e 51 11
e 56 11
e 58 11
e 62 11
e 69 11
e 80 11
e 83 11
e 86 11
e 98 11
e 130 11
e 166 11
e 174 11
e 175 11
e 176 11
e 186 11
e 195 11
e 14 12
e 25 12
e 26 12
e 27 12
e 29 12
e 34 12
e 36 12
e 48 12
e 50 12
e 52 12
e 68 12
e 72 12
e 73 12
e 74 12
e 77 12
e 79 12
e 85 12
e 86 12
e 94 12
e 96 12
e 97 12
e 100 12
e 102 12
e 109 12
e 112 12
e 118 12
e 119 12
e 121 12
e 123 12
e 127 12
e 155 12
e 157 12
e 158 12
e 163 12
e 197 12
e 199 12
e 19 13
e 25 13
e 27 13
e 29 13
e 47 13
e 52 13
e 56 13
e 67 13
e 69 13
e 71 13
e 73 13
e 74 13
e 77 13
e 84 13
e 85 13
e 88 13
e 91 13
e 100 13
e 107 13
e 118 13
e 139 13
e 158 13
e 159 13
e 161 13
e 163 13
e 166 13
e 167 13
e 168 13
e 180 13
e 183 13
e 185 13
e 198 13
e 21 14
e 30 14
e 36 14
e 41 14
e 58 14
e 60 14
e 70 14
e 72 14
e 82 14
e 87 14
e 95 14
e 97 14
e 110 14
e 111 14
e 114 14
e 122 14
e 126 14
e 129 14
e 130 14
e 136 14
e 142 14
e 144 14
e 145 14
e 150 14
e 152 14
e 156 14
e 164 14
e 170 14
e 172 14
e 174 14
e 178 14
e 180 14
e 182 14
e 183 14
e 185 14
e 187 14
e 189 14
e 194 14
e 196 14
e 22 15
e 27 15
e 29 15
e 35 15
e 41 15
e 48 15
e 58 15
e 60 15
e 63 15
e 75 15
e 92 15
e 103 15
e 107 15
e 108 15
e 117 15
e 119 15
e 121 15
e 126 15
e 130 15
e 132 15
e 138 15
e 141 15
e 145 15
e 146 15
e 147 15
e 148 15
e 149 15
e 163 15
e 171 15
e 172 15
e 177 15
e 181 15
e 184 15
e 185 15
e 192 15
e 197 15
e 198 15
e 17 16
e 23 16
e 24 16
e 27 16
e 36 16
e 42 16
e 43 16
e 45 16
e 47 16
e 55 16
e 62 16
e 67 16
e 78 16
e 79 16
e 84 16
e 96 16
e 107 16
e 112 16
e 118 16
e 120 16
e 124 16
e 138 16
e 144 16
e 153 16
e 159 16
e 163 16
e 165 16
e 188 16
e 194 16
e 195 16
e 200 16
e 32 17
e 33 17
e 36 17
e 39 17
e 43 17
e 44 17
e 45 17
e 53 17
e 54 17
e 77 17
e 81 17
e 84 17
e 94 17
e 97 17
e 102 17
e 105 17
e 106 17
e 111 17
e 114 17
e 121 17
e 127 17
e 131 17
e 142 17
e 145 17
e 176 17
e 183 17
e 184 17
e 189 17
e 191 17
e 193 17
e 195 17
e 199 17
e 20 18
e 22 18
e 27 18
e 30 18
e 38 18
e 40 18
e 44 18
e 45 18
e 54 18
e 71 18
e 84 18
e 89 18
e 96 18
e 106 18
e 109 18
e 112 18
e 113 18
e 114 18
e 115 18
e 126 18
e 137 18
e 144 18
e 162 18
e 164 18
e 165 18
e 167 18
e 184 18
e 188 18
e 198 18
e 200 18
e 31 19
e 39 19
e 45 19
e 48 19
e 55 19
e 56 19
e 62 19
e 66 19
e 83 19
e 119 19
e 134 19
e 137 19
e 138 19
e 143 19
e 144 19
e 147 19
e 164 19
e 177 19
e 185 19
e 187 19
e 189 19
e 190 19
e 199 19
e 27 20
e 29 20
e 41 20
e 43 20
e 52 20
e 53 20
e 55 20
e 58 20
e 63 20
e 68 20
e 76 20
e 77 20
e 86 20
e 91 20
e 99 20
e 110 20
e 115 20
e 119 20
e 123 20
e 126 20
e 129 20
e 136 20
e 140 20
e 152 20
e 153 20
e 155 20
e 157 20
e 161 20
e 167 20
e 183 20
e 186 20
e 190 20
e 196 20
e 22 21
e 44 21
e 60 21
e 61 21
e 71 21
e 80 21
e 82 21
e 91 21
e 97 21
e 103 21
e 123 21
e 125 21
e 145 21
e 148 21
e 152 21
e 153 21
e 171 21
e 179 21
e 185 21
e 187 21
e 191 21
e 200 21
e 25 22
e 28 22
e 30 22
e 31 22
e 39 22
e 54 22
e 63 22
e 79 22
e 80 22
e 86 22
e 93 22
e 99 22
e 102 22
e 103 22
e 113 22
e 120 22
e 123 22
e 128 22
e 132 22
e 134 22
e 148 22
e 150 22
e 151 22
e 152 22
e 153 22
e 157 22
e 171 22
e 177 22
e 184 22
e 190 22
e 199 22
e 25 23
e 30 23
e 49 23
e 51 23
e 57 23
e 60 23
e 62 23
e 69 23
e 71 23
e 80 23
e 83 23
e 99 23
e 102 23
e 107 23
e 109 23
e 110 23
e 116 23
e 118 23
e 120 23
e 124 23
e 139 23
e 140 23
e 146 23
e 150 23
e 157 23
e 158 23
e 171 23
e 186 23
e 190 23
e 194 23
e 32 24
e 33 24
e 42 24
e 46 24
e 52 24
e 56 24
e 61 24
e 75 24
e 79 24
e 86 24
e 89 24
e 91 24
e 99 24
e 100 24
e 109 24
e 111 24
e 112 24
e 122 24
e 124 24
e 134 24
e 142 24
e 147 24
e 150 24
e 153 24
e 157 24
e 158 24
e 159 24
e 160 24
e 161 24
e 163 24
e 165 24
e 183 24
e 184 24
e 190 24
e 192 24
e 31 25
e 38 25
e 40 25
e 49 25
e 52 25
e 59 25
e 76 25
e 83 25
e 86 25
e 87 25
e 89 25
e 91 25
e 92 25
e 96 25
e 103 25
e 127 25
e 132 25
e 141 25
e 145 25
e 153 25
e 160 25
e 168 25
e 171 25
e 184 25
e 194 25
e 31 26
e 36 26
e 44 26
e 62 26
e 73 26
e 76 26
e 77 26
e 81 26
e 83 26
e 100 26
e 108 26
e 111 26
e 114 26
e 119 26
e 128 26
e 130 26
e 142 26
e 149 26
e 163 26
e 172 26
e 174 26
e 176 26
e 194 26
e 28 27
e 30 27
e 34 27
e 40 27
e 46 27
e 48 27
e 70 27
e 77 27
e 87 27
e 88 27
e 96 27
e 112 27
e 124 27
e 131 27
e 140 27
e 146 27
e 149 27
e 157 27
e 175 27
e 181 27
e 191 27
e 196 27
e 34 28
e 35 28
e 37 28
e 41 28
e 42 28
e 46 28
e 56 28
e 58 28
e 59 28
e 62 28
e 63 28
e 79 28
e 81 28
e 92 28
e 99 28
e 101 28
e 102 28
e 103 28
e 112 28
e 113 28
e 121 28
e 122 28
e 130 28
e 131 28
e 132 28
e 134 28
e 135 28
e 145 28
e 149 28
e 152 28
e 171 28
e 173 28
e 175 28
e 178 28
e 194 28
e 198 28
e 30 29
e 37 29
e 42 29
e 44 29
e 48 29
e 59 29
e 79 29
e 81 29
e 85 29
e 104 29
e 107 29
e 109 29
e 111 29
e 114 29
e 119 29
e 138 29
e 139 29
e 162 29
e 173 29
e 175 29
e 184 29
e 187 29
e 189 29
e 200 29
e 32 30
e 38 30
e 39 30
e 41 30
e 52 30
e 53 30
e 64 30
e 71 30
e 72 30
e 87 30
e 95 30
e 114 30
e 125 30
e 131 30
e 136 30
e 146 30
e 148 30
e 149 30
e 167 30
e 178 30
e 196 30
e 32 31
e 37 31
e 44 31
e 53 31
e 54 31
e 59 31
e 67 31
e 77 31
e 93 31
e 98 31
e 122 31
e 124 31
e 128 31
e 129 31
e 141 31
e 153 31
e 172 31
e 183 31
e 185 31
e 186 31
e 187 31
e 192 31
e 40 32
e 47 32
e 51 32
e 53 32
e 54 32
e 57 32
e 63 32
e 69 32
e 79 32
e 81 32
e 92 32
e 93 32
e 111 32
e 123 32
e 127 32
e 132 32
e 139 32
e 140 32
e 145 32
e 149 32
e 150 32
e 154 32
e 162 32
e 166 32
e 167 32
e 171 32
e 176 32
e 178 32
e 185 32
e 187 32
e 199 32
e 45 33
e 55 33
e 62 33
e 73 33
e 84 33
e 93 33
e 100 33
e 111 33
e 120 33
e 123 33
e 137 33
e 149 33
e 156 33
e 161 33
e 163 33
e 173 33
e 175 33
e 181 33
e 191 33
e 37 34
e 57 34
e 58 34
e 70 34
e 71 34
e 77 34
e 90 34
e 111 34
e 116 34
e 122 34
e 124 34
e 125 34
e 126 34
e 130 34
e 134 34
e 144 34
e 154 34
e 163 34
e 173 34
e 178 34
e 189 34
e 194 34
e 196 34
e 37 35
e 51 35
e 52 35
e 54 35
e 55 35
e 58 35
e 64 35
e 70 35
e 72 35
e 77 35
e 81 35
e 96 35
e 97 35
e 115 35
e 117 35
e 119 35
e 137 35
e 143 35
e 146 35
e 156 35
e 164 35
e 177 35
e 183 35
e 40 36
e 41 36
e 54 36
e 56 36
e 65 36
e 76 36
e 91 36
e 100 36
e 104 36
e 123 36
e 124 36
e 125 36
e 127 36
e 131 36
e 144 36
e 156 36
e 159 36
e 160 36
e 169 36
e 171 36
e 173 36
e 179 36
e 47 37
e 51 37
e 63 37
e 66 37
e 71 37
e 72 37
e 74 37
e 79 37
e 90 37
e 91 37
e 103 37
e 108 37
e 116 37
e 117 37
e 118 37
e 120 37
e 124 37
e 125 37
e 135 37
e 137 37
e 138 37
e 141 37
e 142 37
e 152 37
e 155 37
e 158 37
e 177 37
e 179 37
e 185 37
e 46 38
e 55 38
e 69 38
e 72 38
e 76 38
e 85 38
e 91 38
e 94 38
e 99 38
e 101 38
e 104 38
e 109 38
e 110 38
e 112 38
e 127 38
e 128 38
e 134 38
e 152 38
e 158 38
e 166 38
e 167 38
e 175 38
e 181 38
e 188 38
e 45 39
e 50 39
e 55 39
e 58 39
e 60 39
e 68 39
e 70 39
e 72 39
e 79 39
e 81 39
e 84 39
e 89 39
e 90 39
e 94 39
e 95 39
e 111 39
e 113 39
e 128 39
e 134 39
e 141 39
e 143 39
e 148 39
e 153 39
e 157 39
e 160 39
e 161 39
e 162 39
e 171 39
e 175 39
e 180 39
e 197 39
e 41 40
e 43 40
e 44 40
e 55 40
e 69 40
e 73 40
e 90 40
e 93 40
e 94 40
e 101 40
e 110 40
e 122 40
e 138 40
e 139 40
e 147 40
e 153 40
e 159 40
e 161 40
e 163 40
e 164 40
e 174 40
e 187 40
e 192 40
e 199 40
e 42 41
e 52 41
e 54 41
e 62 41
e 70 41
e 78 41
e 86 41
e 89 41
e 92 41
e 95 41
e 113 41
e 118 41
e 125 41
e 138 41
e 146 41
e 148 41
e 158 41
e 163 41
e 165 41
e 172 41
e 174 41
e 177 41
e 187 41
e 189 41
e 190 41
e 197 41
e 199 41
e 43 42
e 52 42
e 57 42
e 60 42
e 61 42
e 62 42
e 64 42
e 73 42
e 75 42
e 86 42
e 90 42
e 91 42
e 102 42
e 122 42
e 146 42
e 154 42
e 159 42
e 160 42
e 163 42
e 166 42
e 167 42
e 169 42
e 170 42
e 171 42
e 184 42
e 185 42
e 191 42
e 192 42
e 195 42
e 198 42
e 48 43
e 49 43
e 55 43
e 70 43
e 81 43
e 128 43
e 130 43
e 134 43
e 141 43
e 148 43
e 156 43
e 171 43
e 173 43
e 174 43
e 177 43
e 178 43
e 185 43
e 189 43
e 194 43
e 46 44
e 62 44
e 85 44
e 89 44
e 90 44
e 100 44
e 105 44
e 110 44
e 112 44
e 117 44
e 134 44
e 139 44
e 149 44
e 156 44
e 161 44
e 163 44
e 170 44
e 179 44
e 181 44
e 56 45
e 58 45
e 62 45
e 77 45
e 98 45
e 100 45
e 101 45
e 102 45
e 103 45
e 109 45
e 110 45
e 115 45
e 120 45
e 123 45
e 124 45
e 148 45
e 157 45
e 159 45
e 161 45
e 168 45
e 176 45
e 188 45
e 49 46
e 53 46
e 55 46
e 71 46
e 74 46
e 75 46
e 77 46
e 85 46
e 86 46
e 90 46
e 96 46
e 118 46
e 121 46
e 130 46
e 133 46
e 134 46
e 143 46
e 153 46
e 173 46
e 175 46
e 183 46
e 192 46
e 200 46
e 51 47
e 56 47
e 62 47
e 67 47
e 70 47
e 78 47
e 79 47
e 81 47
e 83 47
e 89 47
e 91 47
e 94 47
e 106 47
e 108 47
e 109 47
e 110 47
e 112 47
e 113 47
e 114 47
e 119 47
e 123 47
e 124 47
e 145 47
e 167 47
e 184 47
e 192 47
e 52 48
e 61 48
e 69 48
e 73 48
e 77 48
e 94 48
e 106 48
e 119 48
e 122 48
e 124 48
e 127 48
e 128 48
e 135 48
e 145 48
e 151 48
e 163 48
e 169 48
e 171 48
e 194 48
e 66 49
e 75 49
e 83 49
e 85 49
e 86 49
e 93 49
e 97 49
e 99 49
e 100 49
e 101 49
e 119 49
e 121 49
e 124 49
e 131 49
e 137 49
e 142 49
e 150 49
e 155 49
e 157 49
e 161 49
e 168 49
e 178 49
e 181 49
e 187 49
e 188 49
e 51 50
e 52 50
e 53 50
e 55 50
e 58 50
e 65 50
e 77 50
e 79 50
e 80 50
e 82 50
e 84 50
e 85 50
e 103 50
e 104 50
e 106 50
e 125 50
e 130 50
e 133 50
e 145 50
e 147 50
e 148 50
e 159 50
e 171 50
e 182 50
e 183 50
e 184 50
e 186 50
e 194 50
e 199 50
e 60 51
e 62 51
e 69 51
e 86 51
e 88 51
e 91 51
e 93 51
e 98 51
e 99 51
e 100 51
e 111 51
e 115 51
e 125 51
e 126 51
e 127 51
e 133 51
e 141 51
e 142 51
e 147 51
e 170 51
e 172 51
e 175 51
e 181 51
e 195 51
e 196 51
e 69 52
e 72 52
e 73 52
e 75 52
e 78 52
e 82 52
e 88 52
e 89 52
e 90 52
e 95 52
e 107 52
e 118 52
e 134 52
e 143 52
e 153 52
e 155 52
e 157 52
e 163 52
e 172 52
e 56 53
e 61 53
e 72 53
e 81 53
e 84 53
e 87 53
e 99 53
e 100 53
e 101 53
e 111 53
e 117 53
e 121 53
e 126 53
e 128 53
e 139 53
e 150 53
e 156 53
e 157 53
e 159 53
e 161 53
e 163 53
e 176 53
e 178 53
e 188 53
e 190 53
e 194 53
e 195 53
e 198 53
e 200 53
e 68 54
e 70 54
e 73 54
e 79 54
e 80 54
e 83 54
e 86 54
e 93 54
e 95 54
e 97 54
e 101 54
e 108 54
e 109 54
e 114 54
e 124 54
e 133 54
e 136 54
e 152 54
e 165 54
e 170 54
e 171 54
e 188 54
e 193 54
e 196 54
e 199 54
e 64 55
e 76 55
e 79 55
e 86 55
e 91 55
e 108 55
e 112 55
e 113 55
e 114 55
e 123 55
e 128 55
e 129 55
e 135 55
e 139 55
e 148 55
e 156 55
e 158 55
e 159 55
e 166 55
e 183 55
e 185 55
e 187 55
e 188 55
e 190 55
e 199 55
e 63 56
e 65 56
e 72 56
e 75 56
e 81 56
e 87 56
e 94 56
e 95 56
e 96 56
e 103 56
e 115 56
e 125 56
e 131 56
e 132 56
e 136 56
e 150 56
e 152 56
e 153 56
e 160 56
e 168 56
e 171 56
e 188 56
e 190 56
e 58 57
e 73 57
e 81 57
e 87 57
e 89 57
e 91 57
e 92 57
e 106 57
e 109 57
e 127 57
e 134 57
e 159 57
e 166 57
e 178 57
e 182 57
e 183 57
e 187 57
e 59 58
e 74 58
e 75 58
e 80 58
e 85 58
e 94 58
e 101 58
e 107 58
e 109 58
e 118 58
e 120 58
e 127 58
e 128 58
e 129 58
e 135 58
e 143 58
e 144 58
e 148 58
e 161 58
e 166 58
e 172 58
e 175 58
e 178 58
e 195 58
e 60 59
e 63 59
e 64 59
e 72 59
e 73 59
e 79 59
e 94 59
e 99 59
e 107 59
e 110 59
e 117 59
e 126 59
e 130 59
e 138 59
e 146 59
e 152 59
e 156 59
e 157 59
e 160 59
e 163 59
e 166 59
e 174 59
e 176 59
e 177 59
e 180 59
e 196 59
e 71 60
e 75 60
e 86 60
e 95 60
e 108 60
e 111 60
e 113 60
e 126 60
e 149 60
e 162 60
e 171 60
e 173 60
e 175 60
e 200 60
e 63 61
e 66 61
e 86 61
e 101 61
e 116 61
e 123 61
e 136 61
e 137 61
e 146 61
e 148 61
e 152 61
e 158 61
e 164 61
e 177 61
e 181 61
e 188 61
e 195 61
e 63 62
e 72 62
e 73 62
e 91 62
e 97 62
e 99 62
e 107 62
e 108 62
e 119 62
e 120 62
e 123 62
e 128 62
e 135 62
e 137 62
e 148 62
e 155 62
e 162 62
e 164 62
e 166 62
e 172 62
e 173 62
e 184 62
e 193 62
e 71 63
e 74 63
e 99 63
e 100 63
e 115 63
e 130 63
e 131 63
e 134 63
e 174 63
e 177 63
e 179 63
e 195 63
e 197 63
e 65 64
e 82 64
e 111 64
e 112 64
e 129 64
e 140 64
e 155 64
e 156 64
e 160 64
e 167 64
e 179 64
e 186 64
e 192 64
e 193 64
e 197 64
e 69 65
e 72 65
e 76 65
e 77 65
e 97 65
e 108 65
e 111 65
e 118 65
e 122 65
e 126 65
e 131 65
e 137 65
e 145 65
e 150 65
e 151 65
e 153 65
e 155 65
e 162 65
e 164 65
e 168 65
e 169 65
e 175 65
e 177 65
e 182 65
e 184 65
e 193 65
e 197 65
e 198 65
e 199 65
e 68 66
e 70 66
e 74 66
e 79 66
e 84 66
e 90 66
e 113 66
e 121 66
e 124 66
e 129 66
e 145 66
e 156 66
e 158 66
e 181 66
e 196 66
e 69 67
e 88 67
e 93 67
e 97 67
e 101 67
e 102 67
e 105 67
e 114 67
e 118 67
e 129 67
e 130 67
e 131 67
e 132 67
e 135 67
e 155 67
e 160 67
e 164 67
e 169 67
e 176 67
e 179 67
e 180 67
e 199 67
e 74 68
e 77 68
e 78 68
e 88 68
e 95 68
e 98 68
e 102 68
e 112 68
e 119 68
e 121 68
e 122 68
e 126 68
e 148 68
e 154 68
e 162 68
e 168 68
e 169 68
e 185 68
e 190 68
e 193 68
e 196 68
e 71 69
e 72 69
e 82 69
e 83 69
e 85 69
e 92 69
e 94 69
e 97 69
e 101 69
e 106 69
e 110 69
e 115 69
e 121 69
e 128 69
e 129 69
e 137 69
e 145 69
e 150 69
e 167 69
e 172 69
e 179 69
e 186 69
e 187 69
e 192 69
e 195 69
e 197 69
e 199 69
e 80 70
e 83 70
e 91 70
e 92 70
e 97 70
e 98 70
e 103 70
e 106 70
e 112 70
e 119 70
e 122 70
e 124 70
e 128 70
e 130 70
e 135 70
e 148 70
e 178 70
e 79 71
e 83 71
e 88 71
e 95 71
e 104 71
e 108 71
e 114 71
e 116 71
e 121 71
e 128 71
e 132 71
e 139 71
e 141 71
e 144 71
e 145 71
e 153 71
e 161 71
e 163 71
e 164 71
e 171 71
e 175 71
e 180 71
e 195 71
e 76 72
e 91 72
e 98 72
e 99 72
e 102 72
e 110 72
e 111 72
e 118 72
e 124 72
e 133 72
e 137 72
e 139 72
e 142 72
e 143 72
e 145 72
e 151 72
e 153 72
e 156 72
e 157 72
e 158 72
e 161 72
e 162 72
e 169 72
e 179 72
e 180 72
e 195 72
e 198 72
e 74 73
e 75 73
e 83 73
e 98 73
e 101 73
e 116 73
e 124 73
e 125 73
e 133 73
e 139 73
e 143 73
e 145 73
e 154 73
e 158 73
e 164 73
e 175 73
e 191 73
e 81 74
e 98 74
e 106 74
e 115 74
e 131 74
e 136 74
e 140 74
e 150 74
e 159 74
e 172 74
e 174 74
e 177 74
e 188 74
e 189 74
e 192 74
e 82 75
e 93 75
e 110 75
e 118 75
e 127 75
e 128 75
e 135 75
e 142 75
e 144 75
e 145 75
e 153 75
e 162 75
e 171 75
e 177 75
e 180 75
e 186 75
e 188 75
e 100 76
e 105 76
e 112 76
e 113 76
e 116 76
e 121 76
e 125 76
e 131 76
e 134 76
e 141 76
e 144 76
e 146 76
e 149 76
e 186 76
e 193 76
e 197 76
e 79 77
e 83 77
e 86 77
e 91 77
e 93 77
e 95 77
e 99 77
e 126 77
e 127 77
e 128 77
e 141 77
e 158 77
e 169 77
e 172 77
e 176 77
e 180 77
e 185 77
e 193 77
e 196 77
e 80 78
e 81 78
e 83 78
e 97 78
e 103 78
e 115 78
e 124 78
e 125 78
e 131 78
e 134 78
e 136 78
e 143 78
e 146 78
e 151 78
e 156 78
e 157 78
e 169 78
e 193 78
e 81 79
e 82 79
e 93 79
e 98 79
e 108 79
e 114 79
e 116 79
e 130 79
e 146 79
e 154 79
e 162 79
e 169 79
e 170 79
e 192 79
e 196 79
e 199 79
e 85 80
e 91 80
e 97 80
e 98 80
e 103 80
e 114 80
e 132 80
e 137 80
e 146 80
e 147 80
e 156 80
e 167 80
e 173 80
e 175 80
e 184 80
e 187 80
e 199 80
e 200 80
e 103 81
e 119 81
e 127 81
e 130 81
e 136 81
e 138 81
e 142 81
e 164 81
e 166 81
e 170 81
e 172 81
e 186 81
e 194 81
e 84 82
e 85 82
e 86 82
e 91 82
e 123 82
e 124 82
e 126 82
e 132 82
e 146 82
e 154 82
e 161 82
e 170 82
e 198 82
e 84 83
e 93 83
e 108 83
e 118 83
e 122 83
e 125 83
e 127 83
e 131 83
e 134 83
e 137 83
e 147 83
e 149 83
e 166 83
e 183 83
e 184 83
e 193 83
e 198 83
e 199 83
e 87 84
e 96 84
e 103 84
e 108 84
e 112 84
e 113 84
e 114 84
e 116 84
e 122 84
e 140 84
e 141 84
e 146 84
e 147 84
e 160 84
e 187 84
e 94 85
e 98 85
e 103 85
e 118 85
e 126 85
e 153 85
e 155 85
e 182 85
e 183 85
e 190 85
e 100 86
e 102 86
e 107 86
e 110 86
e 118 86
e 128 86
e 129 86
e 131 86
e 146 86
e 159 86
e 165 86
e 166 86
e 167 86
e 174 86
e 178 86
e 182 86
e 188 86
e 196 86
e 198 86
e 200 86
e 97 87
e 98 87
e 100 87
e 101 87
e 107 87
e 115 87
e 116 87
e 118 87
e 135 87
e 136 87
e 138 87
e 139 87
e 141 87
e 148 87
e 179 87
e 180 87
e 198 87
e 104 88
e 107 88
e 109 88
e 124 88
e 125 88
e 129 88
e 130 88
e 132 88
e 135 88
e 138 88
e 145 88
e 150 88
e 172 88
e 180 88
e 196 88
e 90 89
e 92 89
e 97 89
e 98 89
e 102 89
e 103 89
e 105 89
e 107 89
e 114 89
e 120 89
e 130 89
e 138 89
e 143 89
e 150 89
e 153 89
e 160 89
e 167 89
e 171 89
e 177 89
e 190 89
e 191 89
e 193 89
e 99 90
e 114 90
e 115 90
e 118 90
e 120 90
e 131 90
e 146 90
e 147 90
e 150 90
e 153 90
e 155 90
e 157 90
e 172 90
e 176 90
e 178 90
e 193 90
e 196 90
e 197 90
e 99 91
e 108 91
e 133 91
e 147 91
e 150 91
e 154 91
e 159 91
e 171 91
e 189 91
e 194 91
e 96 92
e 104 92
e 119 92
e 124 92
e 125 92
e 126 92
e 127 92
e 133 92
e 135 92
e 146 92
e 153 92
e 158 92
e 159 92
e 160 92
e 162 92
e 166 92
e 171 92
e 173 92
e 179 92
e 190 92
e 200 92
e 98 93
e 99 93
e 101 93
e 108 93
e 114 93
e 127 93
e 128 93
e 129 93
e 131 93
e 132 93
e 138 93
e 144 93
e 157 93
e 169 93
e 175 93
e 178 93
e 182 93
e 183 93
e 200 93
e 102 94
e 109 94
e 116 94
e 122 94
e 149 94
e 150 94
e 156 94
e 164 94
e 172 94
e 186 94
e 193 94
e 194 94
e 195 94
e 200 94
e 100 95
e 112 95
e 116 95
e 124 95
e 134 95
e 142 95
e 174 95
e 182 95
e 190 95
e 192 95
e 110 96
e 112 96
e 133 96
e 134 96
e 139 96
e 142 96
e 150 96
e 156 96
e 169 96
e 171 96
e 174 96
e 178 96
e 187 96
e 200 96
e 107 97
e 110 97
e 113 97
e 115 97
e 118 97
e 119 97
e 122 97
e 128 97
e 133 97
e 139 97
e 145 97
e 160 97
e 172 97
e 180 97
e 181 97
e 182 97
e 188 97
e 192 97
e 196 97
e 106 98
e 108 98
e 109 98
e 110 98
e 117 98
e 131 98
e 140 98
e 142 98
e 143 98
e 146 98
e 161 98
e 182 98
e 191 98
e 104 99
e 107 99
e 119 99
e 125 99
e 132 99
e 133 99
e 141 99
e 144 99
e 154 99
e 160 99
e 161 99
e 181 99
e 190 99
e 195 99
e 197 99
e 101 100
e 102 100
e 106 100
e 107 100
e 109 100
e 115 100
e 119 100
e 123 100
e 126 100
e 128 100
e 132 100
e 134 100
e 135 100
e 142 100
e 146 100
e 147 100
e 166 100
e 167 100
e 187 100
e 189 100
e 190 100
e 193 100
e 197 100
e 103 101
e 109 101
e 116 101
e 128 101
e 131 101
e 133 101
e 136 101
e 143 101
e 148 101
e 150 101
e 154 101
e 160 101
e 165 101
e 168 101
e 169 101
e 177 101
e 181 101
e 186 101
e 193 101
e 195 101
e 197 101
e 198 101
e 108 102
e 113 102
e 119 102
e 125 102
e 130 102
e 137 102
e 153 102
e 154 102
e 168 102
e 175 102
e 182 102
e 189 102
e 195 102
e 104 103
e 106 103
e 109 103
e 115 103
e 116 103
e 123 103
e 126 103
e 129 103
e 147 103
e 162 103
e 163 103
e 166 103
e 174 103
e 189 103
e 115 104
e 130 104
e 144 104
e 150 104
e 159 104
e 178 104
e 193 104
e 108 105
e 110 105
e 126 105
e 133 105
e 136 105
e 139 105
e 141 105
e 142 105
e 152 105
e 166 105
e 169 105
e 170 105
e 172 105
e 178 105
e 180 105
e 184 105
e 116 106
e 120 106
e 137 106
e 147 106
e 152 106
e 160 106
e 166 106
e 168 106
e 174 106
e 176 106
e 182 106
e 192 106
e 198 106
e 199 106
e 117 107
e 128 107
e 129 107
e 137 107
e 147 107
e 154 107
e 169 107
e 171 107
e 173 107
e 175 107
e 179 107
e 181 107
e 186 107
e 112 108
e 114 108
e 125 108
e 129 108
e 132 108
e 134 108
e 146 108
e 148 108
e 165 108
e 175 108
e 195 108
e 196 108
e 128 109
e 129 109
e 134 109
e 136 109
e 153 109
e 154 109
e 162 109
e 168 109
e 179 109
e 181 109
e 188 109
e 191 109
e 117 110
e 125 110
e 146 110
e 153 110
e 164 110
e 165 110
e 183 110
e 185 110
e 188 110
e 194 110
e 197 110
e 118 111
e 126 111
e 132 111
e 133 111
e 135 111
e 137 111
e 138 111
e 143 111
e 151 111
e 154 111
e 176 111
e 180 111
e 186 111
e 193 111
e 195 111
e 199 111
e 128 112
e 130 112
e 135 112
e 140 112
e 144 112
e 151 112
e 157 112
e 162 112
e 164 112
e 171 112
e 176 112
e 181 112
e 199 112
e 200 112
e 115 113
e 121 113
e 123 113
e 126 113
e 135 113
e 136 113
e 144 113
e 155 113
e 160 113
e 166 113
e 171 113
e 175 113
e 176 113
e 179 113
e 181 113
e 182 113
e 183 113
e 186 113
e 195 113
e 198 113
e 199 113
e 117 114
e 125 114
e 128 114
e 133 114
e 139 114
e 142 114
e 145 114
e 150 114
e 156 114
e 183 114
e 192 114
e 198 114
e 117 115
e 119 115
e 122 115
e 125 115
e 127 115
e 128 115
e 154 115
e 157 115
e 162 115
e 167 115
e 183 115
e 194 115
e 195 115
e 124 116
e 128 116
e 149 116
e 150 116
e 156 116
e 161 116
e 167 116
e 188 116
e 189 116
e 190 116
e 199 116
e 200 116
e 126 117
e 128 117
e 131 117
e 144 117
e 146 117
e 147 117
e 149 117
e 155 117
e 165 117
e 178 117
e 179 117
e 186 117
e 187 117
e 197 117
e 120 118
e 130 118
e 137 118
e 146 118
e 151 118
e 158 118
e 159 118
e 162 118
e 166 118
e 169 118
e 173 118
e 181 118
e 190 118
e 196 118
e 198 118
e 125 119
e 134 119
e 135 119
e 136 119
e 137 119
e 142 119
e 150 119
e 158 119
e 168 119
e 170 119
e 172 119
e 180 119
e 122 120
e 131 120
e 133 120
e 136 120
e 138 120
e 151 120
e 174 120
e 181 120
e 190 120
e 191 120
e 198 120
e 200 120
e 137 121
e 150 121
e 156 121
e 167 121
e 169 121
e 176 121
e 180 121
e 191 121
e 192 121
e 199 121
e 124 122
e 125 122
e 133 122
e 163 122
e 168 122
e 182 122
e 188 122
e 194 122
e 195 122
e 199 122
e 200 122
e 132 123
e 135 123
e 141 123
e 151 123
e 152 123
e 159 123
e 160 123
e 176 123
e 190 123
e 125 124
e 129 124
e 132 124
e 134 124
e 160 124
e 164 124
e 167 124
e 172 124
e 173 124
e 178 124
e 186 124
e 187 124
e 192 124
e 128 125
e 143 125
e 147 125
e 150 125
e 166 125
e 195 125
e 200 125
e 133 126
e 135 126
e 137 126
e 143 126
e 146 126
e 147 126
e 148 126
e 168 126
e 174 126
e 176 126
e 177 126
e 182 126
e 188 126
e 193 126
e 134 127
e 141 127
e 156 127
e 163 127
e 164 127
e 171 127
e 173 127
e 179 127
e 185 127
e 187 127
e 189 127
e 198 127
e 148 128
e 160 128
e 164 128
e 169 128
e 187 128
e 194 128
e 199 128
e 200 128
e 131 129
e 144 129
e 148 129
e 150 129
e 174 129
e 200 129
e 143 130
e 145 130
e 147 130
e 157 130
e 163 130
e 168 130
e 169 130
e 171 130
e 174 130
e 176 130
e 186 130
e 192 130
e 195 130
e 200 130
e 137 131
e 147 131
e 157 131
e 166 131
e 176 131
e 182 131
e 189 131
e 199 131
e 134 132
e 141 132
e 148 132
e 164 132
e 166 132
e 170 132
e 171 132
e 176 132
e 182 132
e 188 132
e 190 132
e 197 132
e 134 133
e 139 133
e 143 133
e 163 133
e 173 133
e 182 133
e 188 133
e 190 133
e 194 133
e 198 133
e 135 134
e 138 134
e 142 134
e 149 134
e 151 134
e 154 134
e 172 134
e 185 134
e 187 134
e 194 134
e 200 134
e 136 135
e 137 135
e 138 135
e 139 135
e 143 135
e 144 135
e 147 135
e 148 135
e 158 135
e 160 135
e 162 135
e 181 135
e 186 135
e 189 135
e 200 135
e 141 136
e 145 136
e 152 136
e 153 136
e 156 136
e 161 136
e 166 136
e 168 136
e 178 136
e 181 136
e 184 136
e 188 136
e 190 136
e 192 136
e 197 136
e 199 136
e 140 137
e 142 137
e 144 137
e 156 137
e 157 137
e 169 137
e 170 137
e 173 137
e 177 137
e 186 137
e 199 137
e 141 138
e 150 138
e 156 138
e 158 138
e 166 138
e 179 138
e 188 138
e 189 138
e 191 138
e 199 138
e 140 139
e 142 139
e 147 139
e 160 139
e 167 139
e 181 139
e 195 139
e 149 140
e 151 140
e 152 140
e 157 140
e 160 140
e 177 140
e 180 140
e 197 140
e 148 141
e 153 141
e 157 141
e 159 141
e 165 141
e 174 141
e 187 141
e 195 141
e 199 141
e 155 142
e 159 142
e 160 142
e 178 142
e 180 142
e 183 142
e 147 143
e 150 143
e 153 143
e 165 143
e 176 143
e 184 143
e 197 143
e 198 143
e 147 144
e 154 144
e 160 144
e 164 144
e 168 144
e 200 144
e 152 145
e 153 145
e 154 145
e 157 145
e 167 145
e 172 145
e 177 145
e 183 145
e 195 145
e 147 146
e 154 146
e 158 146
e 163 146
e 164 146
e 174 146
e 181 146
e 187 146
e 189 146
e 199 146
e 153 147
e 154 147
e 155 147
e 161 147
e 162 147
e 170 147
e 182 147
e 185 147
e 195 147
e 152 148
e 158 148
e 161 148
e 168 148
e 176 148
e 181 148
e 194 148
e 195 148
e 199 148
e 151 149
e 154 149
e 162 149
e 182 149
e 186 149
e 193 149
e 198 149
e 159 150
e 162 150
e 165 150
e 170 150
e 176 150
e 178 150
e 181 150
e 186 150
e 195 150
e 199 150
e 169 151
e 172 151
e 182 151
e 188 151
e 193 151
e 154 152
e 156 152
e 187 152
e 194 152
e 195 152
e 164 153
e 179 153
e 190 153
e 196 153
e 168 154
e 174 154
e 186 154
e 194 154
e 196 154
e 157 155
e 161 155
e 171 155
e 176 155
e 182 155
e 189 155
e 191 155
e 166 156
e 176 156
e 182 156
e 188 156
e 196 156
e 170 157
e 176 157
e 177 157
e 178 157
e 188 157
e 197 157
e 161 158
e 167 158
e 176 158
e 185 158
e 186 158
e 190 158
e 192 158
e 170 159
e 184 159
e 185 159
e 186 159
e 187 159
e 189 159
e 177 160
e 180 160
e 184 160
e 167 161
e 177 161
e 185 161
e 190 161
e 195 161
e 197 161
e 198 161
e 168 162
e 169 162
e 179 162
e 181 162
e 185 162
e 166 163
e 175 163
e 177 163
e 181 163
e 188 163
e 192 163
e 194 163
e 197 163
e 198 163
e 165 164
e 173 164
e 176 164
e 179 164
e 196 164
e 174 165
e 175 165
e 180 165
e 182 165
e 189 165
e 199 165
e 167 166
e 178 166
e 183 166
e 184 166
e 187 166
e 193 166
e 195 166
e 172 167
e 174 167
e 179 167
e 180 167
e 187 167
e 180 168
e 182 168
e 199 168
e 175 169
e 181 169
e 189 169
e 199 169
e 172 170
e 177 170
e 185 170
e 193 170
e 175 171
e 183 171
e 175 172
e 178 172
e 197 172
e 199 172
e 176 173
e 179 173
e 185 173
e 178 174
e 180 174
e 187 174
e 188 174
e 189 174
e 190 174
e 195 174
e 197 174
e 179 175
e 197 175
e 200 175
e 182 176
e 183 176
e 196 176
e 197 176
e 198 176
e 198 177
e 199 177
e 180 178
e 183 178
e 186 178
e 193 178
e 197 178
e 186 179
e 188 179
e 181 180
e 183 180
e 185 180
e 196 180
e 199 180
e 196 181
e 200 181
e 199 183
e 200 183
e 193 184
e 197 184
e 200 184
e 192 185
e 187 186
e 190 186
e 193 186
e 195 186
e 200 186
e 193 187
e 195 187
e 196 187
e 194 188
e 197 188
e 193 192
e 195 192
e 199 192
e 200 195
e 199 196
e 200 196
e 198 197
e 200 198
